row=7;
Board=[|10,6,0,4,0,5,7,0,0,2|7,4,10,2,0,0,9,5,0,3|0,2,8,0,0,5,6,3,7,1|8,4,7,0,3,9,0,0,2,6|6,2,0,5,7,10,0,8,9,1|8,0,0,1,0,0,0,2,0,10|3,2,0,9,7,1,0,0,5,6|];
bottom=[806400,6912,940800,32400,254016,6750,30240,28800,15120,2160]